c Grid graph 3x18
p edge 54 87
e 1 2
e 1 19
e 2 3
e 2 20
e 3 4
e 3 21
e 4 5
e 4 22
e 5 6
e 5 23
e 6 7
e 6 24
e 7 8
e 7 25
e 8 9
e 8 26
e 9 10
e 9 27
e 10 11
e 10 28
e 11 12
e 11 29
e 12 13
e 12 30
e 13 14
e 13 31
e 14 15
e 14 32
e 15 16
e 15 33
e 16 17
e 16 34
e 17 18
e 17 35
e 18 36
e 19 20
e 19 37
e 20 21
e 20 38
e 21 22
e 21 39
e 22 23
e 22 40
e 23 24
e 23 41
e 24 25
e 24 42
e 25 26
e 25 43
e 26 27
e 26 44
e 27 28
e 27 45
e 28 29
e 28 46
e 29 30
e 29 47
e 30 31
e 30 48
e 31 32
e 31 49
e 32 33
e 32 50
e 33 34
e 33 51
e 34 35
e 34 52
e 35 36
e 35 53
e 36 54
e 37 38
e 38 39
e 39 40
e 40 41
e 41 42
e 42 43
e 43 44
e 44 45
e 45 46
e 46 47
e 47 48
e 48 49
e 49 50
e 50 51
e 51 52
e 52 53
e 53 54
